25
1 0 90
2 0 7
2 1 2
3 0 76
3 1 96
3 2 24
4 0 95
4 1 88
4 2 70
4 3 99
5 0 86
5 1 4
5 2 5
5 3 22
5 4 14
6 0 26
6 1 48
6 2 76
6 3 6
6 4 78
6 5 19
7 0 63
7 1 50
7 2 95
7 3 58
7 4 60
7 5 51
7 6 28
8 0 64
8 1 45
8 2 23
8 3 14
8 4 9
8 5 80
8 6 40
8 7 19
9 0 58
9 1 41
9 2 55
9 3 35
9 4 37
9 5 19
9 6 76
9 7 100
9 8 99
10 0 44
10 1 34
10 2 73
10 3 3
10 4 12
10 5 94
10 6 76
10 7 10
10 8 91
10 9 1
11 0 85
11 1 46
11 2 65
11 3 44
11 4 48
11 5 88
11 6 28
11 7 98
11 8 36
11 9 83
11 10 27
12 0 66
12 1 76
12 2 100
12 3 49
12 4 32
12 5 17
12 6 71
12 7 63
12 8 3
12 9 15
12 10 81
12 11 80
13 0 97
13 1 58
13 2 2
13 3 98
13 4 3
13 5 61
13 6 90
13 7 33
13 8 21
13 9 85
13 10 80
13 11 58
13 12 64
14 0 84
14 1 61
14 2 3
14 3 70
14 4 72
14 5 11
14 6 78
14 7 64
14 8 67
14 9 11
14 10 43
14 11 66
14 12 44
14 13 87
15 0 11
15 1 33
15 2 24
15 3 45
15 4 76
15 5 77
15 6 68
15 7 83
15 8 100
15 9 12
15 10 39
15 11 17
15 12 88
15 13 10
15 14 93
16 0 39
16 1 55
16 2 59
16 3 67
16 4 95
16 5 51
16 6 80
16 7 93
16 8 65
16 9 93
16 10 31
16 11 67
16 12 68
16 13 37
16 14 87
16 15 40
17 0 26
17 1 79
17 2 17
17 3 100
17 4 67
17 5 59
17 6 57
17 7 87
17 8 50
17 9 30
17 10 60
17 11 45
17 12 32
17 13 96
17 14 98
17 15 93
17 16 20
18 0 31
18 1 8
18 2 93
18 3 79
18 4 54
18 5 28
18 6 35
18 7 81
18 8 98
18 9 67
18 10 56
18 11 22
18 12 8
18 13 2
18 14 80
18 15 38
18 16 59
18 17 87
19 0 46
19 1 99
19 2 75
19 3 22
19 4 42
19 5 70
19 6 91
19 7 34
19 8 83
19 9 46
19 10 79
19 11 42
19 12 90
19 13 27
19 14 60
19 15 15
19 16 62
19 17 72
19 18 36
20 0 57
20 1 46
20 2 51
20 3 30
20 4 72
20 5 48
20 6 92
20 7 32
20 8 88
20 9 37
20 10 78
20 11 67
20 12 39
20 13 43
20 14 56
20 15 35
20 16 49
20 17 38
20 18 57
20 19 11
21 0 64
21 1 67
21 2 33
21 3 81
21 4 12
21 5 57
21 6 62
21 7 55
21 8 94
21 9 17
21 10 94
21 11 1
21 12 49
21 13 24
21 14 15
21 15 74
21 16 29
21 17 40
21 18 55
21 19 31
21 20 81
22 0 19
22 1 94
22 2 75
22 3 30
22 4 84
22 5 8
22 6 51
22 7 97
22 8 100
22 9 71
22 10 94
22 11 11
22 12 61
22 13 18
22 14 8
22 15 83
22 16 72
22 17 17
22 18 9
22 19 66
22 20 89
22 21 14
23 0 79
23 1 13
23 2 57
23 3 45
23 4 6
23 5 97
23 6 51
23 7 34
23 8 7
23 9 68
23 10 8
23 11 19
23 12 56
23 13 67
23 14 22
23 15 70
23 16 76
23 17 100
23 18 14
23 19 100
23 20 49
23 21 56
23 22 21
24 0 72
24 1 69
24 2 26
24 3 58
24 4 64
24 5 37
24 6 46
24 7 36
24 8 42
24 9 61
24 10 79
24 11 66
24 12 45
24 13 34
24 14 4
24 15 59
24 16 91
24 17 85
24 18 78
24 19 4
24 20 59
24 21 27
24 22 95
24 23 3
